DATASET = "thpack4";
INSTANCE = "054";

WIDTH = 233;
HEIGHT = 220;
LENGTH = 587;

NO_OF_SHAPES = 10;
size = [|
  99,68,23 |
  68,52,40 |
  101,66,61 |
  57,56,22 |
  81,54,47 |
  86,34,25 |
  54,46,27 |
  95,65,34 |
  105,57,29 |
  120,63,28 |
|];

verticality = [|
  0,0,1 |
  1,1,1 |
  1,1,1 |
  0,0,1 |
  1,1,1 |
  0,1,1 |
  0,1,1 |
  0,1,1 |
  0,1,1 |
  0,0,1 |
|];

box_count = [
  23,
  17,
  20,
  17,
  19,
  24,
  11,
  17,
  10,
  14,
];
